
Gurobi 6.5.2 (win64) logging started 07/23/16 02:52:24


Gurobi 6.5.2 (win64) logging started 07/23/16 02:52:24

Optimize a model with 22090 rows, 1460 columns and 47893 nonzeros
Coefficient statistics:
  Matrix range    [4e-06, 1e+03]
  Objective range [1e+00, 1e+00]
  Bounds range    [1e+00, 1e+00]
  RHS range       [1e+00, 1e+03]
Found heuristic solution: objective 681.239
Presolve removed 22066 rows and 1438 columns
Presolve time: 0.01s
Presolved: 24 rows, 22 columns, 70 nonzeros
Found heuristic solution: objective 258.2871766
Variable types: 22 continuous, 0 integer (0 binary)

Root relaxation: objective 1.939210e+02, 15 iterations, 0.00 seconds

    Nodes    |    Current Node    |     Objective Bounds      |     Work
 Expl Unexpl |  Obj  Depth IntInf | Incumbent    BestBd   Gap | It/Node Time

*    0     0               0     193.9209751  193.92098  0.00%     -    0s

Explored 0 nodes (15 simplex iterations) in 0.01 seconds
Thread count was 8 (of 8 available processors)

Optimal solution found (tolerance 1.00e-04)
Best objective 1.939209751337e+02, best bound 1.939209751337e+02, gap 0.0%

Wrote requested result file 'H2\instance14\\Results14EC_Sol4.lp'

